<number of tasks>
20

<cycle time>
1000

<order strength>
0,532


<task times>
1 248
2 282
3 56
4 105
5 78
6 125
7 305
8 47
9 75
10 126
11 105
12 127
13 126
14 183
15 126
16 97
17 291
18 242
19 150
20 63

<precedence relations>
1,4
1,5
1,6
1,12
2,6
2,12
3,7
4,8
5,9
6,11
7,10
7,11
7,12
8,13
9,13
10,20
11,13
11,14
13,15
13,16
13,18
14,17
15,19
15,20

<end>
